p cnf 1101 3082
-322 1 0
-322 57 0
-1 -57 322 0
-59 323 0
-65 323 0
-153 323 0
-154 323 0
59 65 153 154 -323 0
-324 2 0
-324 40 0
-2 -40 324 0
-310 325 0
-277 325 0
310 277 -325 0
-326 8 0
-326 268 0
-8 -268 326 0
-327 7 0
-327 19 0
-7 -19 327 0
-328 12 0
-328 14 0
-12 -14 328 0
-329 21 0
-329 173 0
-21 -173 329 0
-330 -62 0
-330 -93 0
62 93 330 0
-331 34 0
-331 196 0
-34 -196 331 0
-332 197 0
-332 280 0
-197 -280 332 0
-333 84 0
-333 198 0
-84 -198 333 0
-6 335 0
-34 335 0
-39 335 0
6 34 39 -335 0
-334 199 0
-334 335 0
-199 -335 334 0
-31 336 0
-143 336 0
31 143 -336 0
-337 40 0
-337 201 0
-40 -201 337 0
-6 339 0
-29 339 0
-39 339 0
6 29 39 -339 0
-338 202 0
-338 339 0
-202 -339 338 0
-79 341 0
-80 341 0
-271 341 0
-273 341 0
79 80 271 273 -341 0
-340 203 0
-340 341 0
-203 -341 340 0
-342 52 0
-342 74 0
-52 -74 342 0
-343 43 0
-343 316 0
-43 -316 343 0
-344 44 0
-344 291 0
-44 -291 344 0
-345 48 0
-345 159 0
-48 -159 345 0
-128 346 0
-131 346 0
128 131 -346 0
-135 349 0
-139 349 0
135 139 -349 0
-348 41 0
-348 349 0
-41 -349 348 0
-152 347 0
-348 347 0
152 348 -347 0
-350 149 0
-350 217 0
-149 -217 350 0
-10 352 0
-12 352 0
-302 352 0
10 12 302 -352 0
-351 58 0
-351 352 0
-58 -352 351 0
-298 353 0
-299 353 0
298 299 -353 0
-354 63 0
-354 352 0
-63 -352 354 0
-85 355 0
-96 355 0
85 96 -355 0
-356 68 0
-356 191 0
-68 -191 356 0
-128 357 0
-152 357 0
128 152 -357 0
-358 72 0
-358 302 0
-72 -302 358 0
-359 77 0
-359 312 0
-77 -312 359 0
-360 60 0
-360 75 0
-360 76 0
-360 78 0
-60 -75 -76 -78 360 0
-361 46 0
-361 79 0
-46 -79 361 0
-128 362 0
-286 362 0
128 286 -362 0
-73 364 0
-184 364 0
73 184 -364 0
-363 64 0
-363 364 0
-64 -364 363 0
-366 128 0
-366 140 0
-366 149 0
-366 217 0
-128 -140 -149 -217 366 0
-367 131 0
-367 140 0
-367 149 0
-367 217 0
-131 -140 -149 -217 367 0
-152 365 0
-348 365 0
-366 365 0
-367 365 0
152 348 366 367 -365 0
-368 94 0
-368 302 0
-94 -302 368 0
-369 33 0
-369 61 0
-33 -61 369 0
-371 309 0
-371 101 0
-371 102 0
-371 155 0
-371 294 0
-309 -101 -102 -155 -294 371 0
-372 101 0
-372 102 0
-372 314 0
-372 155 0
-372 294 0
-101 -102 -314 -155 -294 372 0
-371 370 0
-372 370 0
371 372 -370 0
-128 373 0
-135 373 0
-137 373 0
-139 373 0
-143 373 0
-148 373 0
-152 373 0
-220 373 0
128 135 137 139 143 148 152 220 -373 0
-375 4 0
-375 41 0
-375 135 0
-375 139 0
-375 206 0
-4 -41 -135 -139 -206 375 0
-128 374 0
-135 374 0
-143 374 0
-152 374 0
-223 374 0
-375 374 0
128 135 143 152 223 375 -374 0
-376 319 0
-376 108 0
-376 109 0
-376 156 0
-319 -108 -109 -156 376 0
-220 377 0
-286 377 0
220 286 -377 0
-378 112 0
-378 228 0
-378 247 0
-112 -228 -247 378 0
-380 48 0
-380 111 0
-380 114 0
-380 162 0
-48 -111 -114 -162 380 0
-381 48 0
-381 111 0
-381 114 0
-381 242 0
-48 -111 -114 -242 381 0
-380 379 0
-381 379 0
380 381 -379 0
-382 119 0
-382 318 0
-119 -318 382 0
-383 120 0
-383 124 0
-383 126 0
-383 165 0
-120 -124 -126 -165 383 0
-384 121 0
-384 293 0
-121 -293 384 0
-33 386 0
-38 386 0
33 38 -386 0
-385 180 0
-385 386 0
-180 -386 385 0
-51 387 0
-185 387 0
-186 387 0
51 185 186 -387 0
-113 388 0
-243 388 0
113 243 -388 0
-389 133 0
-389 146 0
-133 -146 389 0
-256 390 0
-262 390 0
-317 390 0
256 262 317 -390 0
-391 150 0
-391 224 0
-150 -224 391 0
-45 392 0
-276 392 0
-283 392 0
45 276 283 -392 0
-394 122 0
-394 160 0
-394 161 0
-394 163 0
-122 -160 -161 -163 394 0
-395 160 0
-395 161 0
-395 163 0
-395 234 0
-160 -161 -163 -234 395 0
-396 160 0
-396 161 0
-396 163 0
-396 238 0
-160 -161 -163 -238 396 0
-397 160 0
-397 161 0
-397 163 0
-397 244 0
-160 -161 -163 -244 397 0
-398 160 0
-398 161 0
-398 163 0
-398 250 0
-160 -161 -163 -250 398 0
-399 160 0
-399 161 0
-399 163 0
-399 255 0
-160 -161 -163 -255 399 0
-400 160 0
-400 161 0
-400 163 0
-400 260 0
-160 -161 -163 -260 400 0
-394 393 0
-395 393 0
-396 393 0
-397 393 0
-398 393 0
-399 393 0
-400 393 0
394 395 396 397 398 399 400 -393 0
-401 169 0
-401 296 0
-169 -296 401 0
-402 115 0
-402 167 0
-115 -167 402 0
-403 171 0
-403 296 0
-171 -296 403 0
-404 49 0
-404 167 0
-404 208 0
-49 -167 -208 404 0
-405 168 0
-405 204 0
-168 -204 405 0
-406 170 0
-406 204 0
-170 -204 406 0
-177 407 0
-305 407 0
177 305 -407 0
-409 115 0
-409 166 0
-409 176 0
-409 205 0
-115 -166 -176 -205 409 0
-410 166 0
-410 176 0
-410 205 0
-410 278 0
-166 -176 -205 -278 410 0
-409 408 0
-410 408 0
409 410 -408 0
-128 411 0
-143 411 0
-149 411 0
-152 411 0
128 143 149 152 -411 0
-412 92 0
-412 182 0
-92 -182 412 0
-413 183 0
-413 302 0
-183 -302 413 0
-48 415 0
-111 415 0
-160 415 0
-190 415 0
-212 415 0
-228 415 0
48 111 160 190 212 228 -415 0
-414 177 0
-414 415 0
-177 -415 414 0
-416 150 0
-416 218 0
-150 -218 416 0
-417 189 0
-417 218 0
-189 -218 417 0
-418 218 0
-418 226 0
-218 -226 418 0
-419 124 0
-419 125 0
-419 126 0
-419 165 0
-419 231 0
-419 232 0
-124 -125 -126 -165 -231 -232 419 0
-420 233 0
-420 293 0
-233 -293 420 0
-421 66 0
-421 235 0
-421 252 0
-66 -235 -252 421 0
-422 124 0
-422 126 0
-422 165 0
-422 236 0
-422 284 0
-124 -126 -165 -236 -284 422 0
-423 237 0
-423 293 0
-237 -293 423 0
-424 229 0
-424 230 0
-424 245 0
-229 -230 -245 424 0
-425 209 0
-425 240 0
-209 -240 425 0
-426 211 0
-426 241 0
-211 -241 426 0
-427 228 0
-427 240 0
-228 -240 427 0
-428 240 0
-428 293 0
-240 -293 428 0
-429 239 0
-429 300 0
-239 -300 429 0
-430 229 0
-430 230 0
-430 246 0
-229 -230 -246 430 0
-431 124 0
-431 126 0
-431 165 0
-431 251 0
-124 -126 -165 -251 431 0
-432 249 0
-432 293 0
-249 -293 432 0
-433 83 0
-433 248 0
-83 -248 433 0
-434 124 0
-434 126 0
-434 165 0
-434 257 0
-124 -126 -165 -257 434 0
-435 254 0
-435 293 0
-254 -293 435 0
-436 -141 0
-436 165 0
-436 257 0
-436 293 0
141 -165 -257 -293 436 0
-437 253 0
-437 301 0
-253 -301 437 0
-438 124 0
-438 126 0
-438 165 0
-438 263 0
-124 -126 -165 -263 438 0
-439 259 0
-439 293 0
-259 -293 439 0
-440 -141 0
-440 165 0
-440 263 0
-440 293 0
141 -165 -263 -293 440 0
-441 258 0
-441 297 0
-258 -297 441 0
-442 264 0
-442 307 0
-264 -307 442 0
-443 75 0
-443 270 0
-75 -270 443 0
-444 265 0
-444 307 0
-265 -307 444 0
-445 75 0
-445 272 0
-75 -272 445 0
-128 446 0
-143 446 0
128 143 -446 0
-447 267 0
-447 306 0
-267 -306 447 0
-448 275 0
-448 292 0
-275 -292 448 0
-449 9 0
-449 304 0
-9 -304 449 0
-450 48 0
-450 111 0
-450 114 0
-450 281 0
-48 -111 -114 -281 450 0
-451 75 0
-451 279 0
-451 287 0
-75 -279 -287 451 0
-452 209 0
-452 280 0
-452 289 0
-209 -280 -289 452 0
-453 304 0
-453 269 0
-304 -269 453 0
-454 282 0
-454 289 0
-282 -289 454 0
-311 455 0
-317 455 0
311 317 -455 0
-456 33 0
-456 88 0
-33 -88 456 0
-457 36 0
-457 157 0
-36 -157 457 0
-30 459 0
-39 459 0
30 39 -459 0
-458 23 0
-458 459 0
-23 -459 458 0
-460 310 0
-460 -1 0
460 -310 1 0
-461 -310 0
-461 1 0
461 310 -1 0
-462 322 0
-462 -2 0
462 -322 2 0
-463 -322 0
-463 2 0
463 322 -2 0
-464 286 0
-464 -3 0
464 -286 3 0
-465 -286 0
-465 3 0
465 286 -3 0
-466 310 0
-466 -4 0
466 -310 4 0
-467 -310 0
-467 4 0
467 310 -4 0
-468 323 0
-468 -5 0
468 -323 5 0
-469 -323 0
-469 5 0
469 323 -5 0
-470 324 0
-470 -6 0
470 -324 6 0
-471 -324 0
-471 6 0
471 324 -6 0
-472 321 0
-472 -7 0
472 -321 7 0
-473 -321 0
-473 7 0
473 321 -7 0
-474 325 0
-474 -8 0
474 -325 8 0
-475 -325 0
-475 8 0
475 325 -8 0
-476 326 0
-476 -9 0
476 -326 9 0
-477 -326 0
-477 9 0
477 326 -9 0
-478 321 0
-478 -10 0
478 -321 10 0
-479 -321 0
-479 10 0
479 321 -10 0
-480 143 0
-480 -11 0
480 -143 11 0
-481 -143 0
-481 11 0
481 143 -11 0
-482 321 0
-482 -12 0
482 -321 12 0
-483 -321 0
-483 12 0
483 321 -12 0
-484 286 0
-484 -13 0
484 -286 13 0
-485 -286 0
-485 13 0
485 286 -13 0
-486 321 0
-486 -14 0
486 -321 14 0
-487 -321 0
-487 14 0
487 321 -14 0
-488 206 0
-488 -15 0
488 -206 15 0
-489 -206 0
-489 15 0
489 206 -15 0
-490 206 0
-490 -16 0
490 -206 16 0
-491 -206 0
-491 16 0
491 206 -16 0
-492 327 0
-492 -17 0
492 -327 17 0
-493 -327 0
-493 17 0
493 327 -17 0
-494 206 0
-494 -18 0
494 -206 18 0
-495 -206 0
-495 18 0
495 206 -18 0
-496 321 0
-496 -19 0
496 -321 19 0
-497 -321 0
-497 19 0
497 321 -19 0
-498 328 0
-498 -20 0
498 -328 20 0
-499 -328 0
-499 20 0
499 328 -20 0
-500 310 0
-500 -21 0
500 -310 21 0
-501 -310 0
-501 21 0
501 310 -21 0
-502 329 0
-502 -22 0
502 -329 22 0
-503 -329 0
-503 22 0
503 329 -22 0
-504 310 0
-504 -23 0
504 -310 23 0
-505 -310 0
-505 23 0
505 310 -23 0
-506 310 0
-506 -24 0
506 -310 24 0
-507 -310 0
-507 24 0
507 310 -24 0
-508 206 0
-508 -25 0
508 -206 25 0
-509 -206 0
-509 25 0
509 206 -25 0
-510 330 0
-510 -26 0
510 -330 26 0
-511 -330 0
-511 26 0
511 330 -26 0
-512 206 0
-512 -27 0
512 -206 27 0
-513 -206 0
-513 27 0
513 206 -27 0
-514 331 0
-514 -28 0
514 -331 28 0
-515 -331 0
-515 28 0
515 331 -28 0
-516 332 0
-516 -29 0
516 -332 29 0
-517 -332 0
-517 29 0
517 332 -29 0
-518 333 0
-518 -30 0
518 -333 30 0
-519 -333 0
-519 30 0
519 333 -30 0
-520 334 0
-520 -31 0
520 -334 31 0
-521 -334 0
-521 31 0
521 334 -31 0
-522 336 0
-522 -32 0
522 -336 32 0
-523 -336 0
-523 32 0
523 336 -32 0
-524 31 0
-524 -33 0
524 -31 33 0
-525 -31 0
-525 33 0
525 31 -33 0
-526 200 0
-526 -34 0
526 -200 34 0
-527 -200 0
-527 34 0
527 200 -34 0
-528 337 0
-528 -35 0
528 -337 35 0
-529 -337 0
-529 35 0
529 337 -35 0
-530 35 0
-530 -36 0
530 -35 36 0
-531 -35 0
-531 36 0
531 35 -36 0
-532 338 0
-532 -37 0
532 -338 37 0
-533 -338 0
-533 37 0
533 338 -37 0
-534 37 0
-534 -38 0
534 -37 38 0
-535 -37 0
-535 38 0
535 37 -38 0
-536 340 0
-536 -39 0
536 -340 39 0
-537 -340 0
-537 39 0
537 340 -39 0
-538 313 0
-538 -40 0
538 -313 40 0
-539 -313 0
-539 40 0
539 313 -40 0
-540 342 0
-540 -41 0
540 -342 41 0
-541 -342 0
-541 41 0
541 342 -41 0
-542 128 0
-542 -42 0
542 -128 42 0
-543 -128 0
-543 42 0
543 128 -42 0
-544 310 0
-544 -43 0
544 -310 43 0
-545 -310 0
-545 43 0
545 310 -43 0
-546 343 0
-546 -44 0
546 -343 44 0
-547 -343 0
-547 44 0
547 343 -44 0
-548 344 0
-548 -45 0
548 -344 45 0
-549 -344 0
-549 45 0
549 344 -45 0
-550 310 0
-550 -46 0
550 -310 46 0
-551 -310 0
-551 46 0
551 310 -46 0
-552 206 0
-552 -47 0
552 -206 47 0
-553 -206 0
-553 47 0
553 206 -47 0
-554 310 0
-554 -48 0
554 -310 48 0
-555 -310 0
-555 48 0
555 310 -48 0
-556 345 0
-556 -49 0
556 -345 49 0
-557 -345 0
-557 49 0
557 345 -49 0
-558 346 0
-558 -50 0
558 -346 50 0
-559 -346 0
-559 50 0
559 346 -50 0
-560 303 0
-560 -51 0
560 -303 51 0
-561 -303 0
-561 51 0
561 303 -51 0
-562 310 0
-562 -52 0
562 -310 52 0
-563 -310 0
-563 52 0
563 310 -52 0
-564 347 0
-564 -53 0
564 -347 53 0
-565 -347 0
-565 53 0
565 347 -53 0
-566 143 0
-566 -54 0
566 -143 54 0
-567 -143 0
-567 54 0
567 143 -54 0
-568 223 0
-568 -55 0
568 -223 55 0
-569 -223 0
-569 55 0
569 223 -55 0
-570 350 0
-570 -56 0
570 -350 56 0
-571 -350 0
-571 56 0
571 350 -56 0
-572 351 0
-572 -57 0
572 -351 57 0
-573 -351 0
-573 57 0
573 351 -57 0
-574 321 0
-574 -58 0
574 -321 58 0
-575 -321 0
-575 58 0
575 321 -58 0
-576 353 0
-576 -59 0
576 -353 59 0
-577 -353 0
-577 59 0
577 353 -59 0
-578 310 0
-578 -60 0
578 -310 60 0
-579 -310 0
-579 60 0
579 310 -60 0
-580 310 0
-580 -61 0
580 -310 61 0
-581 -310 0
-581 61 0
581 310 -61 0
-582 354 0
-582 -62 0
582 -354 62 0
-583 -354 0
-583 62 0
583 354 -62 0
-584 321 0
-584 -63 0
584 -321 63 0
-585 -321 0
-585 63 0
585 321 -63 0
-586 310 0
-586 -64 0
586 -310 64 0
-587 -310 0
-587 64 0
587 310 -64 0
-588 355 0
-588 -65 0
588 -355 65 0
-589 -355 0
-589 65 0
589 355 -65 0
-590 311 0
-590 -66 0
590 -311 66 0
-591 -311 0
-591 66 0
591 311 -66 0
-592 356 0
-592 -67 0
592 -356 67 0
-593 -356 0
-593 67 0
593 356 -67 0
-594 300 0
-594 -68 0
594 -300 68 0
-595 -300 0
-595 68 0
595 300 -68 0
-596 357 0
-596 -69 0
596 -357 69 0
-597 -357 0
-597 69 0
597 357 -69 0
-598 69 0
-598 -70 0
598 -69 70 0
-599 -69 0
-599 70 0
599 69 -70 0
-600 358 0
-600 -71 0
600 -358 71 0
-601 -358 0
-601 71 0
601 358 -71 0
-602 321 0
-602 -72 0
602 -321 72 0
-603 -321 0
-603 72 0
603 321 -72 0
-604 71 0
-604 -73 0
604 -71 73 0
-605 -71 0
-605 73 0
605 71 -73 0
-606 310 0
-606 -74 0
606 -310 74 0
-607 -310 0
-607 74 0
607 310 -74 0
-608 310 0
-608 -75 0
608 -310 75 0
-609 -310 0
-609 75 0
609 310 -75 0
-610 310 0
-610 -76 0
610 -310 76 0
-611 -310 0
-611 76 0
611 310 -76 0
-612 310 0
-612 -77 0
612 -310 77 0
-613 -310 0
-613 77 0
613 310 -77 0
-614 359 0
-614 -78 0
614 -359 78 0
-615 -359 0
-615 78 0
615 359 -78 0
-616 360 0
-616 -79 0
616 -360 79 0
-617 -360 0
-617 79 0
617 360 -79 0
-618 361 0
-618 -80 0
618 -361 80 0
-619 -361 0
-619 80 0
619 361 -80 0
-620 362 0
-620 -81 0
620 -362 81 0
-621 -362 0
-621 81 0
621 362 -81 0
-622 206 0
-622 -82 0
622 -206 82 0
-623 -206 0
-623 82 0
623 206 -82 0
-624 311 0
-624 -83 0
624 -311 83 0
-625 -311 0
-625 83 0
625 311 -83 0
-626 65 0
-626 -84 0
626 -65 84 0
-627 -65 0
-627 84 0
627 65 -84 0
-628 363 0
-628 -85 0
628 -363 85 0
-629 -363 0
-629 85 0
629 363 -85 0
-630 365 0
-630 -86 0
630 -365 86 0
-631 -365 0
-631 86 0
631 365 -86 0
-632 149 0
-632 -87 0
632 -149 87 0
-633 -149 0
-633 87 0
633 149 -87 0
-634 310 0
-634 -88 0
634 -310 88 0
-635 -310 0
-635 88 0
635 310 -88 0
-636 346 0
-636 -89 0
636 -346 89 0
-637 -346 0
-637 89 0
637 346 -89 0
-638 346 0
-638 -90 0
638 -346 90 0
-639 -346 0
-639 90 0
639 346 -90 0
-640 149 0
-640 -91 0
640 -149 91 0
-641 -149 0
-641 91 0
641 149 -91 0
-642 310 0
-642 -92 0
642 -310 92 0
-643 -310 0
-643 92 0
643 310 -92 0
-644 368 0
-644 -93 0
644 -368 93 0
-645 -368 0
-645 93 0
645 368 -93 0
-646 321 0
-646 -94 0
646 -321 94 0
-647 -321 0
-647 94 0
647 321 -94 0
-648 223 0
-648 -95 0
648 -223 95 0
-649 -223 0
-649 95 0
649 223 -95 0
-650 369 0
-650 -96 0
650 -369 96 0
-651 -369 0
-651 96 0
651 369 -96 0
-652 206 0
-652 -97 0
652 -206 97 0
-653 -206 0
-653 97 0
653 206 -97 0
-654 143 0
-654 -98 0
654 -143 98 0
-655 -143 0
-655 98 0
655 143 -98 0
-656 347 0
-656 -99 0
656 -347 99 0
-657 -347 0
-657 99 0
657 347 -99 0
-658 370 0
-658 -100 0
658 -370 100 0
-659 -370 0
-659 100 0
659 370 -100 0
-660 310 0
-660 -101 0
660 -310 101 0
-661 -310 0
-661 101 0
661 310 -101 0
-662 310 0
-662 -102 0
662 -310 102 0
-663 -310 0
-663 102 0
663 310 -102 0
-664 309 0
-664 -103 0
664 -309 103 0
-665 -309 0
-665 103 0
665 309 -103 0
-666 373 0
-666 -104 0
666 -373 104 0
-667 -373 0
-667 104 0
667 373 -104 0
-668 314 0
-668 -105 0
668 -314 105 0
-669 -314 0
-669 105 0
669 314 -105 0
-670 374 0
-670 -106 0
670 -374 106 0
-671 -374 0
-671 106 0
671 374 -106 0
-672 376 0
-672 -107 0
672 -376 107 0
-673 -376 0
-673 107 0
673 376 -107 0
-674 310 0
-674 -108 0
674 -310 108 0
-675 -310 0
-675 108 0
675 310 -108 0
-676 310 0
-676 -109 0
676 -310 109 0
-677 -310 0
-677 109 0
677 310 -109 0
-678 377 0
-678 -110 0
678 -377 110 0
-679 -377 0
-679 110 0
679 377 -110 0
-680 310 0
-680 -111 0
680 -310 111 0
-681 -310 0
-681 111 0
681 310 -111 0
-682 310 0
-682 -112 0
682 -310 112 0
-683 -310 0
-683 112 0
683 310 -112 0
-684 378 0
-684 -113 0
684 -378 113 0
-685 -378 0
-685 113 0
685 378 -113 0
-686 310 0
-686 -114 0
686 -310 114 0
-687 -310 0
-687 114 0
687 310 -114 0
-688 379 0
-688 -115 0
688 -379 115 0
-689 -379 0
-689 115 0
689 379 -115 0
-690 128 0
-690 -116 0
690 -128 116 0
-691 -128 0
-691 116 0
691 128 -116 0
-692 128 0
-692 -117 0
692 -128 117 0
-693 -128 0
-693 117 0
693 128 -117 0
-694 350 0
-694 -118 0
694 -350 118 0
-695 -350 0
-695 118 0
695 350 -118 0
-696 310 0
-696 -119 0
696 -310 119 0
-697 -310 0
-697 119 0
697 310 -119 0
-698 382 0
-698 -120 0
698 -382 120 0
-699 -382 0
-699 120 0
699 382 -120 0
-700 383 0
-700 -121 0
700 -383 121 0
-701 -383 0
-701 121 0
701 383 -121 0
-702 384 0
-702 -122 0
702 -384 122 0
-703 -384 0
-703 122 0
703 384 -122 0
-704 385 0
-704 -123 0
704 -385 123 0
-705 -385 0
-705 123 0
705 385 -123 0
-706 310 0
-706 -124 0
706 -310 124 0
-707 -310 0
-707 124 0
707 310 -124 0
-708 310 0
-708 -125 0
708 -310 125 0
-709 -310 0
-709 125 0
709 310 -125 0
-710 310 0
-710 -126 0
710 -310 126 0
-711 -310 0
-711 126 0
711 310 -126 0
-712 129 0
-712 -127 0
712 -129 127 0
-713 -129 0
-713 127 0
713 129 -127 0
-714 127 0
-714 -128 0
714 -127 128 0
-715 -127 0
-715 128 0
715 127 -128 0
-716 387 0
-716 -129 0
716 -387 129 0
-717 -387 0
-717 129 0
717 387 -129 0
-718 223 0
-718 -130 0
718 -223 130 0
-719 -223 0
-719 130 0
719 223 -130 0
-720 320 0
-720 -131 0
720 -320 131 0
-721 -320 0
-721 131 0
721 320 -131 0
-722 128 0
-722 -132 0
722 -128 132 0
-723 -128 0
-723 132 0
723 128 -132 0
-724 388 0
-724 -133 0
724 -388 133 0
-725 -388 0
-725 133 0
725 388 -133 0
-726 133 0
-726 -134 0
726 -133 134 0
-727 -133 0
-727 134 0
727 133 -134 0
-728 134 0
-728 -135 0
728 -134 135 0
-729 -134 0
-729 135 0
729 134 -135 0
-730 141 0
-730 -136 0
730 -141 136 0
-731 -141 0
-731 136 0
731 141 -136 0
-732 136 0
-732 -137 0
732 -136 137 0
-733 -136 0
-733 137 0
733 136 -137 0
-734 389 0
-734 -138 0
734 -389 138 0
-735 -389 0
-735 138 0
735 389 -138 0
-736 138 0
-736 -139 0
736 -138 139 0
-737 -138 0
-737 139 0
737 138 -139 0
-738 310 0
-738 -140 0
738 -310 140 0
-739 -310 0
-739 140 0
739 310 -140 0
-740 390 0
-740 -141 0
740 -390 141 0
-741 -390 0
-741 141 0
741 390 -141 0
-742 141 0
-742 -142 0
742 -141 142 0
-743 -141 0
-743 142 0
743 141 -142 0
-744 142 0
-744 -143 0
744 -142 143 0
-745 -142 0
-745 143 0
745 142 -143 0
-746 141 0
-746 -144 0
746 -141 144 0
-747 -141 0
-747 144 0
747 141 -144 0
-748 144 0
-748 -145 0
748 -144 145 0
-749 -144 0
-749 145 0
749 144 -145 0
-750 113 0
-750 -146 0
750 -113 146 0
-751 -113 0
-751 146 0
751 113 -146 0
-752 146 0
-752 -147 0
752 -146 147 0
-753 -146 0
-753 147 0
753 146 -147 0
-754 147 0
-754 -148 0
754 -147 148 0
-755 -147 0
-755 148 0
755 147 -148 0
-756 346 0
-756 -149 0
756 -346 149 0
-757 -346 0
-757 149 0
757 346 -149 0
-758 310 0
-758 -150 0
758 -310 150 0
-759 -310 0
-759 150 0
759 310 -150 0
-760 391 0
-760 -151 0
760 -391 151 0
-761 -391 0
-761 151 0
761 391 -151 0
-762 151 0
-762 -152 0
762 -151 152 0
-763 -151 0
-763 152 0
763 151 -152 0
-764 70 0
-764 -153 0
764 -70 153 0
-765 -70 0
-765 153 0
765 70 -153 0
-766 123 0
-766 -154 0
766 -123 154 0
-767 -123 0
-767 154 0
767 123 -154 0
-768 310 0
-768 -155 0
768 -310 155 0
-769 -310 0
-769 155 0
769 310 -155 0
-770 310 0
-770 -156 0
770 -310 156 0
-771 -310 0
-771 156 0
771 310 -156 0
-772 310 0
-772 -157 0
772 -310 157 0
-773 -310 0
-773 157 0
773 310 -157 0
-774 311 0
-774 -158 0
774 -311 158 0
-775 -311 0
-775 158 0
775 311 -158 0
-776 392 0
-776 -159 0
776 -392 159 0
-777 -392 0
-777 159 0
777 392 -159 0
-778 310 0
-778 -160 0
778 -310 160 0
-779 -310 0
-779 160 0
779 310 -160 0
-780 310 0
-780 -161 0
780 -310 161 0
-781 -310 0
-781 161 0
781 310 -161 0
-782 393 0
-782 -162 0
782 -393 162 0
-783 -393 0
-783 162 0
783 393 -162 0
-784 310 0
-784 -163 0
784 -310 163 0
-785 -310 0
-785 163 0
785 310 -163 0
-786 286 0
-786 -164 0
786 -286 164 0
-787 -286 0
-787 164 0
787 286 -164 0
-788 310 0
-788 -165 0
788 -310 165 0
-789 -310 0
-789 165 0
789 310 -165 0
-790 305 0
-790 -166 0
790 -305 166 0
-791 -305 0
-791 166 0
791 305 -166 0
-792 310 0
-792 -167 0
792 -310 167 0
-793 -310 0
-793 167 0
793 310 -167 0
-794 401 0
-794 -168 0
794 -401 168 0
-795 -401 0
-795 168 0
795 401 -168 0
-796 402 0
-796 -169 0
796 -402 169 0
-797 -402 0
-797 169 0
797 402 -169 0
-798 403 0
-798 -170 0
798 -403 170 0
-799 -403 0
-799 170 0
799 403 -170 0
-800 404 0
-800 -171 0
800 -404 171 0
-801 -404 0
-801 171 0
801 404 -171 0
-802 405 0
-802 -172 0
802 -405 172 0
-803 -405 0
-803 172 0
803 405 -172 0
-804 172 0
-804 -173 0
804 -172 173 0
-805 -172 0
-805 173 0
805 172 -173 0
-806 406 0
-806 -174 0
806 -406 174 0
-807 -406 0
-807 174 0
807 406 -174 0
-808 174 0
-808 -175 0
808 -174 175 0
-809 -174 0
-809 175 0
809 174 -175 0
-810 407 0
-810 -176 0
810 -407 176 0
-811 -407 0
-811 176 0
811 407 -176 0
-812 408 0
-812 -177 0
812 -408 177 0
-813 -408 0
-813 177 0
813 408 -177 0
-814 310 0
-814 -178 0
814 -310 178 0
-815 -310 0
-815 178 0
815 310 -178 0
-816 411 0
-816 -179 0
816 -411 179 0
-817 -411 0
-817 179 0
817 411 -179 0
-818 310 0
-818 -180 0
818 -310 180 0
-819 -310 0
-819 180 0
819 310 -180 0
-820 412 0
-820 -181 0
820 -412 181 0
-821 -412 0
-821 181 0
821 412 -181 0
-822 413 0
-822 -182 0
822 -413 182 0
-823 -413 0
-823 182 0
823 413 -182 0
-824 321 0
-824 -183 0
824 -321 183 0
-825 -321 0
-825 183 0
825 321 -183 0
-826 182 0
-826 -184 0
826 -182 184 0
-827 -182 0
-827 184 0
827 182 -184 0
-828 303 0
-828 -185 0
828 -303 185 0
-829 -303 0
-829 185 0
829 303 -185 0
-830 303 0
-830 -186 0
830 -303 186 0
-831 -303 0
-831 186 0
831 303 -186 0
-832 143 0
-832 -187 0
832 -143 187 0
-833 -143 0
-833 187 0
833 143 -187 0
-834 143 0
-834 -188 0
834 -143 188 0
-835 -143 0
-835 188 0
835 143 -188 0
-836 310 0
-836 -189 0
836 -310 189 0
-837 -310 0
-837 189 0
837 310 -189 0
-838 310 0
-838 -190 0
838 -310 190 0
-839 -310 0
-839 190 0
839 310 -190 0
-840 310 0
-840 -191 0
840 -310 191 0
-841 -310 0
-841 191 0
841 310 -191 0
-842 143 0
-842 -192 0
842 -143 192 0
-843 -143 0
-843 192 0
843 143 -192 0
-844 346 0
-844 -193 0
844 -346 193 0
-845 -346 0
-845 193 0
845 346 -193 0
-846 310 0
-846 -194 0
846 -310 194 0
-847 -310 0
-847 194 0
847 310 -194 0
-848 310 0
-848 -195 0
848 -310 195 0
-849 -310 0
-849 195 0
849 310 -195 0
-850 310 0
-850 -196 0
850 -310 196 0
-851 -310 0
-851 196 0
851 310 -196 0
-852 310 0
-852 -197 0
852 -310 197 0
-853 -310 0
-853 197 0
853 310 -197 0
-854 310 0
-854 -198 0
854 -310 198 0
-855 -310 0
-855 198 0
855 310 -198 0
-856 308 0
-856 -199 0
856 -308 199 0
-857 -308 0
-857 199 0
857 308 -199 0
-858 310 0
-858 -200 0
858 -310 200 0
-859 -310 0
-859 200 0
859 310 -200 0
-860 313 0
-860 -201 0
860 -313 201 0
-861 -313 0
-861 201 0
861 313 -201 0
-862 315 0
-862 -202 0
862 -315 202 0
-863 -315 0
-863 202 0
863 315 -202 0
-864 310 0
-864 -203 0
864 -310 203 0
-865 -310 0
-865 203 0
865 310 -203 0
-866 310 0
-866 -204 0
866 -310 204 0
-867 -310 0
-867 204 0
867 310 -204 0
-868 305 0
-868 -205 0
868 -305 205 0
-869 -305 0
-869 205 0
869 305 -205 0
-870 207 0
-870 -206 0
870 -207 206 0
-871 -207 0
-871 206 0
871 207 -206 0
-872 414 0
-872 -207 0
872 -414 207 0
-873 -414 0
-873 207 0
873 414 -207 0
-874 310 0
-874 -208 0
874 -310 208 0
-875 -310 0
-875 208 0
875 310 -208 0
-876 310 0
-876 -209 0
876 -310 209 0
-877 -310 0
-877 209 0
877 310 -209 0
-878 143 0
-878 -210 0
878 -143 210 0
-879 -143 0
-879 210 0
879 143 -210 0
-880 310 0
-880 -211 0
880 -310 211 0
-881 -310 0
-881 211 0
881 310 -211 0
-882 310 0
-882 -212 0
882 -310 212 0
-883 -310 0
-883 212 0
883 310 -212 0
-884 310 0
-884 -213 0
884 -310 213 0
-885 -310 0
-885 213 0
885 310 -213 0
-886 310 0
-886 -214 0
886 -310 214 0
-887 -310 0
-887 214 0
887 310 -214 0
-888 206 0
-888 -215 0
888 -206 215 0
-889 -206 0
-889 215 0
889 206 -215 0
-890 143 0
-890 -216 0
890 -143 216 0
-891 -143 0
-891 216 0
891 143 -216 0
-892 310 0
-892 -217 0
892 -310 217 0
-893 -310 0
-893 217 0
893 310 -217 0
-894 107 0
-894 -218 0
894 -107 218 0
-895 -107 0
-895 218 0
895 107 -218 0
-896 416 0
-896 -219 0
896 -416 219 0
-897 -416 0
-897 219 0
897 416 -219 0
-898 219 0
-898 -220 0
898 -219 220 0
-899 -219 0
-899 220 0
899 219 -220 0
-900 417 0
-900 -221 0
900 -417 221 0
-901 -417 0
-901 221 0
901 417 -221 0
-902 221 0
-902 -222 0
902 -221 222 0
-903 -221 0
-903 222 0
903 221 -222 0
-904 222 0
-904 -223 0
904 -222 223 0
-905 -222 0
-905 223 0
905 222 -223 0
-906 418 0
-906 -224 0
906 -418 224 0
-907 -418 0
-907 224 0
907 418 -224 0
-908 128 0
-908 -225 0
908 -128 225 0
-909 -128 0
-909 225 0
909 128 -225 0
-910 100 0
-910 -226 0
910 -100 226 0
-911 -100 0
-911 226 0
911 100 -226 0
-912 346 0
-912 -227 0
912 -346 227 0
-913 -346 0
-913 227 0
913 346 -227 0
-914 310 0
-914 -228 0
914 -310 228 0
-915 -310 0
-915 228 0
915 310 -228 0
-916 310 0
-916 -229 0
916 -310 229 0
-917 -310 0
-917 229 0
917 310 -229 0
-918 310 0
-918 -230 0
918 -310 230 0
-919 -310 0
-919 230 0
919 310 -230 0
-920 310 0
-920 -231 0
920 -310 231 0
-921 -310 0
-921 231 0
921 310 -231 0
-922 295 0
-922 -232 0
922 -295 232 0
-923 -295 0
-923 232 0
923 295 -232 0
-924 419 0
-924 -233 0
924 -419 233 0
-925 -419 0
-925 233 0
925 419 -233 0
-926 420 0
-926 -234 0
926 -420 234 0
-927 -420 0
-927 234 0
927 420 -234 0
-928 310 0
-928 -235 0
928 -310 235 0
-929 -310 0
-929 235 0
929 310 -235 0
-930 421 0
-930 -236 0
930 -421 236 0
-931 -421 0
-931 236 0
931 421 -236 0
-932 422 0
-932 -237 0
932 -422 237 0
-933 -422 0
-933 237 0
933 422 -237 0
-934 423 0
-934 -238 0
934 -423 238 0
-935 -423 0
-935 238 0
935 423 -238 0
-936 310 0
-936 -239 0
936 -310 239 0
-937 -310 0
-937 239 0
937 310 -239 0
-938 424 0
-938 -240 0
938 -424 240 0
-939 -424 0
-939 240 0
939 424 -240 0
-940 425 0
-940 -241 0
940 -425 241 0
-941 -425 0
-941 241 0
941 425 -241 0
-942 426 0
-942 -242 0
942 -426 242 0
-943 -426 0
-943 242 0
943 426 -242 0
-944 427 0
-944 -243 0
944 -427 243 0
-945 -427 0
-945 243 0
945 427 -243 0
-946 428 0
-946 -244 0
946 -428 244 0
-947 -428 0
-947 244 0
947 428 -244 0
-948 429 0
-948 -245 0
948 -429 245 0
-949 -429 0
-949 245 0
949 429 -245 0
-950 158 0
-950 -246 0
950 -158 246 0
-951 -158 0
-951 246 0
951 158 -246 0
-952 430 0
-952 -247 0
952 -430 247 0
-953 -430 0
-953 247 0
953 430 -247 0
-954 310 0
-954 -248 0
954 -310 248 0
-955 -310 0
-955 248 0
955 310 -248 0
-956 431 0
-956 -249 0
956 -431 249 0
-957 -431 0
-957 249 0
957 431 -249 0
-958 432 0
-958 -250 0
958 -432 250 0
-959 -432 0
-959 250 0
959 432 -250 0
-960 433 0
-960 -251 0
960 -433 251 0
-961 -433 0
-961 251 0
961 433 -251 0
-962 310 0
-962 -252 0
962 -310 252 0
-963 -310 0
-963 252 0
963 310 -252 0
-964 310 0
-964 -253 0
964 -310 253 0
-965 -310 0
-965 253 0
965 310 -253 0
-966 434 0
-966 -254 0
966 -434 254 0
-967 -434 0
-967 254 0
967 434 -254 0
-968 435 0
-968 -255 0
968 -435 255 0
-969 -435 0
-969 255 0
969 435 -255 0
-970 436 0
-970 -256 0
970 -436 256 0
-971 -436 0
-971 256 0
971 436 -256 0
-972 437 0
-972 -257 0
972 -437 257 0
-973 -437 0
-973 257 0
973 437 -257 0
-974 310 0
-974 -258 0
974 -310 258 0
-975 -310 0
-975 258 0
975 310 -258 0
-976 438 0
-976 -259 0
976 -438 259 0
-977 -438 0
-977 259 0
977 438 -259 0
-978 439 0
-978 -260 0
978 -439 260 0
-979 -439 0
-979 260 0
979 439 -260 0
-980 260 0
-980 -261 0
980 -260 261 0
-981 -260 0
-981 261 0
981 260 -261 0
-982 440 0
-982 -262 0
982 -440 262 0
-983 -440 0
-983 262 0
983 440 -262 0
-984 441 0
-984 -263 0
984 -441 263 0
-985 -441 0
-985 263 0
985 441 -263 0
-986 310 0
-986 -264 0
986 -310 264 0
-987 -310 0
-987 264 0
987 310 -264 0
-988 310 0
-988 -265 0
988 -310 265 0
-989 -310 0
-989 265 0
989 310 -265 0
-990 286 0
-990 -266 0
990 -286 266 0
-991 -286 0
-991 266 0
991 286 -266 0
-992 310 0
-992 -267 0
992 -310 267 0
-993 -310 0
-993 267 0
993 310 -267 0
-994 310 0
-994 -268 0
994 -310 268 0
-995 -310 0
-995 268 0
995 310 -268 0
-996 310 0
-996 -269 0
996 -310 269 0
-997 -310 0
-997 269 0
997 310 -269 0
-998 442 0
-998 -270 0
998 -442 270 0
-999 -442 0
-999 270 0
999 442 -270 0
-1000 443 0
-1000 -271 0
1000 -443 271 0
-1001 -443 0
-1001 271 0
1001 443 -271 0
-1002 444 0
-1002 -272 0
1002 -444 272 0
-1003 -444 0
-1003 272 0
1003 444 -272 0
-1004 445 0
-1004 -273 0
1004 -445 273 0
-1005 -445 0
-1005 273 0
1005 445 -273 0
-1006 446 0
-1006 -274 0
1006 -446 274 0
-1007 -446 0
-1007 274 0
1007 446 -274 0
-1008 447 0
-1008 -275 0
1008 -447 275 0
-1009 -447 0
-1009 275 0
1009 447 -275 0
-1010 448 0
-1010 -276 0
1010 -448 276 0
-1011 -448 0
-1011 276 0
1011 448 -276 0
-1012 449 0
-1012 -277 0
1012 -449 277 0
-1013 -449 0
-1013 277 0
1013 449 -277 0
-1014 450 0
-1014 -278 0
1014 -450 278 0
-1015 -450 0
-1015 278 0
1015 450 -278 0
-1016 277 0
-1016 -279 0
1016 -277 279 0
-1017 -277 0
-1017 279 0
1017 277 -279 0
-1018 451 0
-1018 -280 0
1018 -451 280 0
-1019 -451 0
-1019 280 0
1019 451 -280 0
-1020 452 0
-1020 -281 0
1020 -452 281 0
-1021 -452 0
-1021 281 0
1021 452 -281 0
-1022 453 0
-1022 -282 0
1022 -453 282 0
-1023 -453 0
-1023 282 0
1023 453 -282 0
-1024 454 0
-1024 -283 0
1024 -454 283 0
-1025 -454 0
-1025 283 0
1025 454 -283 0
-1026 310 0
-1026 -284 0
1026 -310 284 0
-1027 -310 0
-1027 284 0
1027 310 -284 0
-1028 67 0
-1028 -285 0
1028 -67 285 0
-1029 -67 0
-1029 285 0
1029 67 -285 0
-1030 285 0
-1030 -286 0
1030 -285 286 0
-1031 -285 0
-1031 286 0
1031 285 -286 0
-1032 310 0
-1032 -287 0
1032 -310 287 0
-1033 -310 0
-1033 287 0
1033 310 -287 0
-1034 206 0
-1034 -288 0
1034 -206 288 0
-1035 -206 0
-1035 288 0
1035 206 -288 0
-1036 310 0
-1036 -289 0
1036 -310 289 0
-1037 -310 0
-1037 289 0
1037 310 -289 0
-1038 206 0
-1038 -290 0
1038 -206 290 0
-1039 -206 0
-1039 290 0
1039 206 -290 0
-1040 310 0
-1040 -291 0
1040 -310 291 0
-1041 -310 0
-1041 291 0
1041 310 -291 0
-1042 310 0
-1042 -292 0
1042 -310 292 0
-1043 -310 0
-1043 292 0
1043 310 -292 0
-1044 310 0
-1044 -293 0
1044 -310 293 0
-1045 -310 0
-1045 293 0
1045 310 -293 0
-1046 310 0
-1046 -294 0
1046 -310 294 0
-1047 -310 0
-1047 294 0
1047 310 -294 0
-1048 311 0
-1048 -295 0
1048 -311 295 0
-1049 -311 0
-1049 295 0
1049 311 -295 0
-1050 310 0
-1050 -296 0
1050 -310 296 0
-1051 -310 0
-1051 296 0
1051 310 -296 0
-1052 455 0
-1052 -297 0
1052 -455 297 0
-1053 -455 0
-1053 297 0
1053 455 -297 0
-1054 456 0
-1054 -298 0
1054 -456 298 0
-1055 -456 0
-1055 298 0
1055 456 -298 0
-1056 457 0
-1056 -299 0
1056 -457 299 0
-1057 -457 0
-1057 299 0
1057 457 -299 0
-1058 317 0
-1058 -300 0
1058 -317 300 0
-1059 -317 0
-1059 300 0
1059 317 -300 0
-1060 317 0
-1060 -301 0
1060 -317 301 0
-1061 -317 0
-1061 301 0
1061 317 -301 0
-1062 458 0
-1062 -302 0
1062 -458 302 0
-1063 -458 0
-1063 302 0
1063 458 -302 0
-1064 303 0
-1064 -303 0
1064 -303 303 0
-1065 -303 0
-1065 303 0
1065 303 -303 0
-1066 304 0
-1066 -304 0
1066 -304 304 0
-1067 -304 0
-1067 304 0
1067 304 -304 0
-1068 305 0
-1068 -305 0
1068 -305 305 0
-1069 -305 0
-1069 305 0
1069 305 -305 0
-1070 306 0
-1070 -306 0
1070 -306 306 0
-1071 -306 0
-1071 306 0
1071 306 -306 0
-1072 307 0
-1072 -307 0
1072 -307 307 0
-1073 -307 0
-1073 307 0
1073 307 -307 0
-1074 308 0
-1074 -308 0
1074 -308 308 0
-1075 -308 0
-1075 308 0
1075 308 -308 0
-1076 309 0
-1076 -309 0
1076 -309 309 0
-1077 -309 0
-1077 309 0
1077 309 -309 0
-1078 310 0
-1078 -310 0
1078 -310 310 0
-1079 -310 0
-1079 310 0
1079 310 -310 0
-1080 311 0
-1080 -311 0
1080 -311 311 0
-1081 -311 0
-1081 311 0
1081 311 -311 0
-1082 312 0
-1082 -312 0
1082 -312 312 0
-1083 -312 0
-1083 312 0
1083 312 -312 0
-1084 313 0
-1084 -313 0
1084 -313 313 0
-1085 -313 0
-1085 313 0
1085 313 -313 0
-1086 314 0
-1086 -314 0
1086 -314 314 0
-1087 -314 0
-1087 314 0
1087 314 -314 0
-1088 315 0
-1088 -315 0
1088 -315 315 0
-1089 -315 0
-1089 315 0
1089 315 -315 0
-1090 316 0
-1090 -316 0
1090 -316 316 0
-1091 -316 0
-1091 316 0
1091 316 -316 0
-1092 317 0
-1092 -317 0
1092 -317 317 0
-1093 -317 0
-1093 317 0
1093 317 -317 0
-1094 318 0
-1094 -318 0
1094 -318 318 0
-1095 -318 0
-1095 318 0
1095 318 -318 0
-1096 319 0
-1096 -319 0
1096 -319 319 0
-1097 -319 0
-1097 319 0
1097 319 -319 0
-1098 320 0
-1098 -320 0
1098 -320 320 0
-1099 -320 0
-1099 320 0
1099 320 -320 0
-1100 321 0
-1100 -321 0
1100 -321 321 0
-1101 -321 0
-1101 321 0
1101 321 -321 0
-460 0
-461 0
-462 0
-463 0
-464 0
-465 0
-466 0
-467 0
-468 0
-469 0
-470 0
-471 0
-472 0
-473 0
-474 0
-475 0
-476 0
-477 0
-478 0
-479 0
-480 0
-481 0
-482 0
-483 0
-484 0
-485 0
-486 0
-487 0
-488 0
-489 0
-490 0
-491 0
-492 0
-493 0
-494 0
-495 0
-496 0
-497 0
-498 0
-499 0
-500 0
-501 0
-502 0
-503 0
-504 0
-505 0
-506 0
-507 0
-508 0
-509 0
-510 0
-511 0
-512 0
-513 0
-514 0
-515 0
-516 0
-517 0
-518 0
-519 0
-520 0
-521 0
-522 0
-523 0
-524 0
-525 0
-526 0
-527 0
-528 0
-529 0
-530 0
-531 0
-532 0
-533 0
-534 0
-535 0
-536 0
-537 0
-538 0
-539 0
-540 0
-541 0
-542 0
-543 0
-544 0
-545 0
-546 0
-547 0
-548 0
-549 0
-550 0
-551 0
-552 0
-553 0
-554 0
-555 0
-556 0
-557 0
-558 0
-559 0
-560 0
-561 0
-562 0
-563 0
-564 0
-565 0
-566 0
-567 0
-568 0
-569 0
-570 0
-571 0
-572 0
-573 0
-574 0
-575 0
-576 0
-577 0
-578 0
-579 0
-580 0
-581 0
-582 0
-583 0
-584 0
-585 0
-586 0
-587 0
-588 0
-589 0
-590 0
-591 0
-592 0
-593 0
-594 0
-595 0
-596 0
-597 0
-598 0
-599 0
-600 0
-601 0
-602 0
-603 0
-604 0
-605 0
-606 0
-607 0
-608 0
-609 0
-610 0
-611 0
-612 0
-613 0
-614 0
-615 0
-616 0
-617 0
-618 0
-619 0
-620 0
-621 0
-622 0
-623 0
-624 0
-625 0
-626 0
-627 0
-628 0
-629 0
-630 0
-631 0
-632 0
-633 0
-634 0
-635 0
-636 0
-637 0
-638 0
-639 0
-640 0
-641 0
-642 0
-643 0
-644 0
-645 0
-646 0
-647 0
-648 0
-649 0
-650 0
-651 0
-652 0
-653 0
-654 0
-655 0
-656 0
-657 0
-658 0
-659 0
-660 0
-661 0
-662 0
-663 0
-664 0
-665 0
-666 0
-667 0
-668 0
-669 0
-670 0
-671 0
-672 0
-673 0
-674 0
-675 0
-676 0
-677 0
-678 0
-679 0
-680 0
-681 0
-682 0
-683 0
-684 0
-685 0
-686 0
-687 0
-688 0
-689 0
-690 0
-691 0
-692 0
-693 0
-694 0
-695 0
-696 0
-697 0
-698 0
-699 0
-700 0
-701 0
-702 0
-703 0
-704 0
-705 0
-706 0
-707 0
-708 0
-709 0
-710 0
-711 0
-712 0
-713 0
-714 0
-715 0
-716 0
-717 0
-718 0
-719 0
-720 0
-721 0
-722 0
-723 0
-724 0
-725 0
-726 0
-727 0
-728 0
-729 0
-730 0
-731 0
-732 0
-733 0
-734 0
-735 0
-736 0
-737 0
-738 0
-739 0
-740 0
-741 0
-742 0
-743 0
-744 0
-745 0
-746 0
-747 0
-748 0
-749 0
-750 0
-751 0
-752 0
-753 0
-754 0
-755 0
-756 0
-757 0
-758 0
-759 0
-760 0
-761 0
-762 0
-763 0
-764 0
-765 0
-766 0
-767 0
-768 0
-769 0
-770 0
-771 0
-772 0
-773 0
-774 0
-775 0
-776 0
-777 0
-778 0
-779 0
-780 0
-781 0
-782 0
-783 0
-784 0
-785 0
-786 0
-787 0
-788 0
-789 0
-790 0
-791 0
-792 0
-793 0
-794 0
-795 0
-796 0
-797 0
-798 0
-799 0
-800 0
-801 0
-802 0
-803 0
-804 0
-805 0
-806 0
-807 0
-808 0
-809 0
-810 0
-811 0
-812 0
-813 0
-814 0
-815 0
-816 0
-817 0
-818 0
-819 0
-820 0
-821 0
-822 0
-823 0
-824 0
-825 0
-826 0
-827 0
-828 0
-829 0
-830 0
-831 0
-832 0
-833 0
-834 0
-835 0
-836 0
-837 0
-838 0
-839 0
-840 0
-841 0
-842 0
-843 0
-844 0
-845 0
-846 0
-847 0
-848 0
-849 0
-850 0
-851 0
-852 0
-853 0
-854 0
-855 0
-856 0
-857 0
-858 0
-859 0
-860 0
-861 0
-862 0
-863 0
-864 0
-865 0
-866 0
-867 0
-868 0
-869 0
-870 0
-871 0
-872 0
-873 0
-874 0
-875 0
-876 0
-877 0
-878 0
-879 0
-880 0
-881 0
-882 0
-883 0
-884 0
-885 0
-886 0
-887 0
-888 0
-889 0
-890 0
-891 0
-892 0
-893 0
-894 0
-895 0
-896 0
-897 0
-898 0
-899 0
-900 0
-901 0
-902 0
-903 0
-904 0
-905 0
-906 0
-907 0
-908 0
-909 0
-910 0
-911 0
-912 0
-913 0
-914 0
-915 0
-916 0
-917 0
-918 0
-919 0
-920 0
-921 0
-922 0
-923 0
-924 0
-925 0
-926 0
-927 0
-928 0
-929 0
-930 0
-931 0
-932 0
-933 0
-934 0
-935 0
-936 0
-937 0
-938 0
-939 0
-940 0
-941 0
-942 0
-943 0
-944 0
-945 0
-946 0
-947 0
-948 0
-949 0
-950 0
-951 0
-952 0
-953 0
-954 0
-955 0
-956 0
-957 0
-958 0
-959 0
-960 0
-961 0
-962 0
-963 0
-964 0
-965 0
-966 0
-967 0
-968 0
-969 0
-970 0
-971 0
-972 0
-973 0
-974 0
-975 0
-976 0
-977 0
-978 0
-979 0
-980 0
-981 0
-982 0
-983 0
-984 0
-985 0
-986 0
-987 0
-988 0
-989 0
-990 0
-991 0
-992 0
-993 0
-994 0
-995 0
-996 0
-997 0
-998 0
-999 0
-1000 0
-1001 0
-1002 0
-1003 0
-1004 0
-1005 0
-1006 0
-1007 0
-1008 0
-1009 0
-1010 0
-1011 0
-1012 0
-1013 0
-1014 0
-1015 0
-1016 0
-1017 0
-1018 0
-1019 0
-1020 0
-1021 0
-1022 0
-1023 0
-1024 0
-1025 0
-1026 0
-1027 0
-1028 0
-1029 0
-1030 0
-1031 0
-1032 0
-1033 0
-1034 0
-1035 0
-1036 0
-1037 0
-1038 0
-1039 0
-1040 0
-1041 0
-1042 0
-1043 0
-1044 0
-1045 0
-1046 0
-1047 0
-1048 0
-1049 0
-1050 0
-1051 0
-1052 0
-1053 0
-1054 0
-1055 0
-1056 0
-1057 0
-1058 0
-1059 0
-1060 0
-1061 0
-1062 0
-1063 0
-1064 0
-1065 0
-1066 0
-1067 0
-1068 0
-1069 0
-1070 0
-1071 0
-1072 0
-1073 0
-1074 0
-1075 0
-1076 0
-1077 0
-1078 0
-1079 0
-1080 0
-1081 0
-1082 0
-1083 0
-1084 0
-1085 0
-1086 0
-1087 0
-1088 0
-1089 0
-1090 0
-1091 0
-1092 0
-1093 0
-1094 0
-1095 0
-1096 0
-1097 0
-1098 0
-1099 0
-1100 0
-1101 0